gil250_1
0 163 224 82 157 225 38 102 15 59 162 243 3 190 112 73 198 191 19 185 72 21 100 145 115 154 244 108 232 142 139 202 155 70 99 138 186 81 4 34 95 156 239 192 184 218 149 86 247 88 212 187 45 98 117 92 178 109 20 158 60 110 227 97 132 201 245 24 40 17 175 66 168 103 113 42 10 131 214 57 114 9 153 150 220 36 170 2 125 0 217 206 65 183 58 189 121 248 89 167 13 26 230 148 101 193 64 249 62 237 104 141 25 246 140 164 160 28 182 180 63 179 48 196 174 143 128 161 77 91 46 216 37 16 135 146 177 69 0